sat
(:max-memory          19.98
 :memory              17.91
 :num-allocs          1570744
 :rlimit-count        30637
 :sls-arith-steps     3623
 :sls-ddfw-flips      5589.00
 :sls-ddfw-shifts     2546.00
 :solve-eqs-elim-vars 44
 :solve-eqs-steps     812
 :time                0.07
 :total-time          0.07)
